p cnf 437 736
45 46 1 70 71 0
45 46 1 70 -71 0
45 46 1 -70 71 0
45 46 1 -70 -71 0
-45 -46 1 72 73 0
-45 -46 1 72 -73 0
-45 -46 1 -72 73 0
-45 -46 1 -72 -73 0
45 -46 -1 74 75 0
45 -46 -1 74 -75 0
45 -46 -1 -74 75 0
45 -46 -1 -74 -75 0
-45 46 -1 76 77 0
-45 46 -1 76 -77 0
-45 46 -1 -76 77 0
-45 46 -1 -76 -77 0
1 47 2 78 79 0
1 47 2 78 -79 0
1 47 2 -78 79 0
1 47 2 -78 -79 0
-1 -47 2 80 81 0
-1 -47 2 80 -81 0
-1 -47 2 -80 81 0
-1 -47 2 -80 -81 0
1 -47 -2 82 83 0
1 -47 -2 82 -83 0
1 -47 -2 -82 83 0
1 -47 -2 -82 -83 0
-1 47 -2 84 85 0
-1 47 -2 84 -85 0
-1 47 -2 -84 85 0
-1 47 -2 -84 -85 0
2 48 3 86 87 0
2 48 3 86 -87 0
2 48 3 -86 87 0
2 48 3 -86 -87 0
-2 -48 3 88 89 0
-2 -48 3 88 -89 0
-2 -48 3 -88 89 0
-2 -48 3 -88 -89 0
2 -48 -3 90 91 0
2 -48 -3 90 -91 0
2 -48 -3 -90 91 0
2 -48 -3 -90 -91 0
-2 48 -3 92 93 0
-2 48 -3 92 -93 0
-2 48 -3 -92 93 0
-2 48 -3 -92 -93 0
3 49 4 94 95 0
3 49 4 94 -95 0
3 49 4 -94 95 0
3 49 4 -94 -95 0
-3 -49 4 96 97 0
-3 -49 4 96 -97 0
-3 -49 4 -96 97 0
-3 -49 4 -96 -97 0
3 -49 -4 98 99 0
3 -49 -4 98 -99 0
3 -49 -4 -98 99 0
3 -49 -4 -98 -99 0
-3 49 -4 100 101 0
-3 49 -4 100 -101 0
-3 49 -4 -100 101 0
-3 49 -4 -100 -101 0
4 50 5 102 103 0
4 50 5 102 -103 0
4 50 5 -102 103 0
4 50 5 -102 -103 0
-4 -50 5 104 105 0
-4 -50 5 104 -105 0
-4 -50 5 -104 105 0
-4 -50 5 -104 -105 0
4 -50 -5 106 107 0
4 -50 -5 106 -107 0
4 -50 -5 -106 107 0
4 -50 -5 -106 -107 0
-4 50 -5 108 109 0
-4 50 -5 108 -109 0
-4 50 -5 -108 109 0
-4 50 -5 -108 -109 0
5 51 6 110 111 0
5 51 6 110 -111 0
5 51 6 -110 111 0
5 51 6 -110 -111 0
-5 -51 6 112 113 0
-5 -51 6 112 -113 0
-5 -51 6 -112 113 0
-5 -51 6 -112 -113 0
5 -51 -6 114 115 0
5 -51 -6 114 -115 0
5 -51 -6 -114 115 0
5 -51 -6 -114 -115 0
-5 51 -6 116 117 0
-5 51 -6 116 -117 0
-5 51 -6 -116 117 0
-5 51 -6 -116 -117 0
6 52 7 118 119 0
6 52 7 118 -119 0
6 52 7 -118 119 0
6 52 7 -118 -119 0
-6 -52 7 120 121 0
-6 -52 7 120 -121 0
-6 -52 7 -120 121 0
-6 -52 7 -120 -121 0
6 -52 -7 122 123 0
6 -52 -7 122 -123 0
6 -52 -7 -122 123 0
6 -52 -7 -122 -123 0
-6 52 -7 124 125 0
-6 52 -7 124 -125 0
-6 52 -7 -124 125 0
-6 52 -7 -124 -125 0
7 53 8 126 127 0
7 53 8 126 -127 0
7 53 8 -126 127 0
7 53 8 -126 -127 0
-7 -53 8 128 129 0
-7 -53 8 128 -129 0
-7 -53 8 -128 129 0
-7 -53 8 -128 -129 0
7 -53 -8 130 131 0
7 -53 -8 130 -131 0
7 -53 -8 -130 131 0
7 -53 -8 -130 -131 0
-7 53 -8 132 133 0
-7 53 -8 132 -133 0
-7 53 -8 -132 133 0
-7 53 -8 -132 -133 0
8 54 9 134 135 0
8 54 9 134 -135 0
8 54 9 -134 135 0
8 54 9 -134 -135 0
-8 -54 9 136 137 0
-8 -54 9 136 -137 0
-8 -54 9 -136 137 0
-8 -54 9 -136 -137 0
8 -54 -9 138 139 0
8 -54 -9 138 -139 0
8 -54 -9 -138 139 0
8 -54 -9 -138 -139 0
-8 54 -9 140 141 0
-8 54 -9 140 -141 0
-8 54 -9 -140 141 0
-8 54 -9 -140 -141 0
9 55 10 142 143 0
9 55 10 142 -143 0
9 55 10 -142 143 0
9 55 10 -142 -143 0
-9 -55 10 144 145 0
-9 -55 10 144 -145 0
-9 -55 10 -144 145 0
-9 -55 10 -144 -145 0
9 -55 -10 146 147 0
9 -55 -10 146 -147 0
9 -55 -10 -146 147 0
9 -55 -10 -146 -147 0
-9 55 -10 148 149 0
-9 55 -10 148 -149 0
-9 55 -10 -148 149 0
-9 55 -10 -148 -149 0
10 56 11 150 151 0
10 56 11 150 -151 0
10 56 11 -150 151 0
10 56 11 -150 -151 0
-10 -56 11 152 153 0
-10 -56 11 152 -153 0
-10 -56 11 -152 153 0
-10 -56 11 -152 -153 0
10 -56 -11 154 155 0
10 -56 -11 154 -155 0
10 -56 -11 -154 155 0
10 -56 -11 -154 -155 0
-10 56 -11 156 157 0
-10 56 -11 156 -157 0
-10 56 -11 -156 157 0
-10 56 -11 -156 -157 0
11 57 12 158 159 0
11 57 12 158 -159 0
11 57 12 -158 159 0
11 57 12 -158 -159 0
-11 -57 12 160 161 0
-11 -57 12 160 -161 0
-11 -57 12 -160 161 0
-11 -57 12 -160 -161 0
11 -57 -12 162 163 0
11 -57 -12 162 -163 0
11 -57 -12 -162 163 0
11 -57 -12 -162 -163 0
-11 57 -12 164 165 0
-11 57 -12 164 -165 0
-11 57 -12 -164 165 0
-11 57 -12 -164 -165 0
12 58 13 166 167 0
12 58 13 166 -167 0
12 58 13 -166 167 0
12 58 13 -166 -167 0
-12 -58 13 168 169 0
-12 -58 13 168 -169 0
-12 -58 13 -168 169 0
-12 -58 13 -168 -169 0
12 -58 -13 170 171 0
12 -58 -13 170 -171 0
12 -58 -13 -170 171 0
12 -58 -13 -170 -171 0
-12 58 -13 172 173 0
-12 58 -13 172 -173 0
-12 58 -13 -172 173 0
-12 58 -13 -172 -173 0
13 59 14 174 175 0
13 59 14 174 -175 0
13 59 14 -174 175 0
13 59 14 -174 -175 0
-13 -59 14 176 177 0
-13 -59 14 176 -177 0
-13 -59 14 -176 177 0
-13 -59 14 -176 -177 0
13 -59 -14 178 179 0
13 -59 -14 178 -179 0
13 -59 -14 -178 179 0
13 -59 -14 -178 -179 0
-13 59 -14 180 181 0
-13 59 -14 180 -181 0
-13 59 -14 -180 181 0
-13 59 -14 -180 -181 0
14 60 15 182 183 0
14 60 15 182 -183 0
14 60 15 -182 183 0
14 60 15 -182 -183 0
-14 -60 15 184 185 0
-14 -60 15 184 -185 0
-14 -60 15 -184 185 0
-14 -60 15 -184 -185 0
14 -60 -15 186 187 0
14 -60 -15 186 -187 0
14 -60 -15 -186 187 0
14 -60 -15 -186 -187 0
-14 60 -15 188 189 0
-14 60 -15 188 -189 0
-14 60 -15 -188 189 0
-14 60 -15 -188 -189 0
15 61 16 190 191 0
15 61 16 190 -191 0
15 61 16 -190 191 0
15 61 16 -190 -191 0
-15 -61 16 192 193 0
-15 -61 16 192 -193 0
-15 -61 16 -192 193 0
-15 -61 16 -192 -193 0
15 -61 -16 194 195 0
15 -61 -16 194 -195 0
15 -61 -16 -194 195 0
15 -61 -16 -194 -195 0
-15 61 -16 196 197 0
-15 61 -16 196 -197 0
-15 61 -16 -196 197 0
-15 61 -16 -196 -197 0
16 62 17 198 199 0
16 62 17 198 -199 0
16 62 17 -198 199 0
16 62 17 -198 -199 0
-16 -62 17 200 201 0
-16 -62 17 200 -201 0
-16 -62 17 -200 201 0
-16 -62 17 -200 -201 0
16 -62 -17 202 203 0
16 -62 -17 202 -203 0
16 -62 -17 -202 203 0
16 -62 -17 -202 -203 0
-16 62 -17 204 205 0
-16 62 -17 204 -205 0
-16 62 -17 -204 205 0
-16 62 -17 -204 -205 0
17 63 18 206 207 0
17 63 18 206 -207 0
17 63 18 -206 207 0
17 63 18 -206 -207 0
-17 -63 18 208 209 0
-17 -63 18 208 -209 0
-17 -63 18 -208 209 0
-17 -63 18 -208 -209 0
17 -63 -18 210 211 0
17 -63 -18 210 -211 0
17 -63 -18 -210 211 0
17 -63 -18 -210 -211 0
-17 63 -18 212 213 0
-17 63 -18 212 -213 0
-17 63 -18 -212 213 0
-17 63 -18 -212 -213 0
18 64 19 214 215 0
18 64 19 214 -215 0
18 64 19 -214 215 0
18 64 19 -214 -215 0
-18 -64 19 216 217 0
-18 -64 19 216 -217 0
-18 -64 19 -216 217 0
-18 -64 19 -216 -217 0
18 -64 -19 218 219 0
18 -64 -19 218 -219 0
18 -64 -19 -218 219 0
18 -64 -19 -218 -219 0
-18 64 -19 220 221 0
-18 64 -19 220 -221 0
-18 64 -19 -220 221 0
-18 64 -19 -220 -221 0
19 65 20 222 223 0
19 65 20 222 -223 0
19 65 20 -222 223 0
19 65 20 -222 -223 0
-19 -65 20 224 225 0
-19 -65 20 224 -225 0
-19 -65 20 -224 225 0
-19 -65 20 -224 -225 0
19 -65 -20 226 227 0
19 -65 -20 226 -227 0
19 -65 -20 -226 227 0
19 -65 -20 -226 -227 0
-19 65 -20 228 229 0
-19 65 -20 228 -229 0
-19 65 -20 -228 229 0
-19 65 -20 -228 -229 0
20 66 21 230 231 0
20 66 21 230 -231 0
20 66 21 -230 231 0
20 66 21 -230 -231 0
-20 -66 21 232 233 0
-20 -66 21 232 -233 0
-20 -66 21 -232 233 0
-20 -66 21 -232 -233 0
20 -66 -21 234 235 0
20 -66 -21 234 -235 0
20 -66 -21 -234 235 0
20 -66 -21 -234 -235 0
-20 66 -21 236 237 0
-20 66 -21 236 -237 0
-20 66 -21 -236 237 0
-20 66 -21 -236 -237 0
21 67 22 238 239 0
21 67 22 238 -239 0
21 67 22 -238 239 0
21 67 22 -238 -239 0
-21 -67 22 240 241 0
-21 -67 22 240 -241 0
-21 -67 22 -240 241 0
-21 -67 22 -240 -241 0
21 -67 -22 242 243 0
21 -67 -22 242 -243 0
21 -67 -22 -242 243 0
21 -67 -22 -242 -243 0
-21 67 -22 244 245 0
-21 67 -22 244 -245 0
-21 67 -22 -244 245 0
-21 67 -22 -244 -245 0
22 68 69 246 247 0
22 68 69 246 -247 0
22 68 69 -246 247 0
22 68 69 -246 -247 0
-22 -68 69 248 249 0
-22 -68 69 248 -249 0
-22 -68 69 -248 249 0
-22 -68 69 -248 -249 0
22 -68 -69 250 251 0
22 -68 -69 250 -251 0
22 -68 -69 -250 251 0
22 -68 -69 -250 -251 0
-22 68 -69 252 253 0
-22 68 -69 252 -253 0
-22 68 -69 -252 253 0
-22 68 -69 -252 -253 0
23 68 69 254 255 0
23 68 69 254 -255 0
23 68 69 -254 255 0
23 68 69 -254 -255 0
-23 -68 69 256 257 0
-23 -68 69 256 -257 0
-23 -68 69 -256 257 0
-23 -68 69 -256 -257 0
23 -68 -69 258 259 0
23 -68 -69 258 -259 0
23 -68 -69 -258 259 0
23 -68 -69 -258 -259 0
-23 68 -69 260 261 0
-23 68 -69 260 -261 0
-23 68 -69 -260 261 0
-23 68 -69 -260 -261 0
24 67 23 262 263 0
24 67 23 262 -263 0
24 67 23 -262 263 0
24 67 23 -262 -263 0
-24 -67 23 264 265 0
-24 -67 23 264 -265 0
-24 -67 23 -264 265 0
-24 -67 23 -264 -265 0
24 -67 -23 266 267 0
24 -67 -23 266 -267 0
24 -67 -23 -266 267 0
24 -67 -23 -266 -267 0
-24 67 -23 268 269 0
-24 67 -23 268 -269 0
-24 67 -23 -268 269 0
-24 67 -23 -268 -269 0
25 66 24 270 271 0
25 66 24 270 -271 0
25 66 24 -270 271 0
25 66 24 -270 -271 0
-25 -66 24 272 273 0
-25 -66 24 272 -273 0
-25 -66 24 -272 273 0
-25 -66 24 -272 -273 0
25 -66 -24 274 275 0
25 -66 -24 274 -275 0
25 -66 -24 -274 275 0
25 -66 -24 -274 -275 0
-25 66 -24 276 277 0
-25 66 -24 276 -277 0
-25 66 -24 -276 277 0
-25 66 -24 -276 -277 0
26 65 25 278 279 0
26 65 25 278 -279 0
26 65 25 -278 279 0
26 65 25 -278 -279 0
-26 -65 25 280 281 0
-26 -65 25 280 -281 0
-26 -65 25 -280 281 0
-26 -65 25 -280 -281 0
26 -65 -25 282 283 0
26 -65 -25 282 -283 0
26 -65 -25 -282 283 0
26 -65 -25 -282 -283 0
-26 65 -25 284 285 0
-26 65 -25 284 -285 0
-26 65 -25 -284 285 0
-26 65 -25 -284 -285 0
27 64 26 286 287 0
27 64 26 286 -287 0
27 64 26 -286 287 0
27 64 26 -286 -287 0
-27 -64 26 288 289 0
-27 -64 26 288 -289 0
-27 -64 26 -288 289 0
-27 -64 26 -288 -289 0
27 -64 -26 290 291 0
27 -64 -26 290 -291 0
27 -64 -26 -290 291 0
27 -64 -26 -290 -291 0
-27 64 -26 292 293 0
-27 64 -26 292 -293 0
-27 64 -26 -292 293 0
-27 64 -26 -292 -293 0
28 63 27 294 295 0
28 63 27 294 -295 0
28 63 27 -294 295 0
28 63 27 -294 -295 0
-28 -63 27 296 297 0
-28 -63 27 296 -297 0
-28 -63 27 -296 297 0
-28 -63 27 -296 -297 0
28 -63 -27 298 299 0
28 -63 -27 298 -299 0
28 -63 -27 -298 299 0
28 -63 -27 -298 -299 0
-28 63 -27 300 301 0
-28 63 -27 300 -301 0
-28 63 -27 -300 301 0
-28 63 -27 -300 -301 0
29 62 28 302 303 0
29 62 28 302 -303 0
29 62 28 -302 303 0
29 62 28 -302 -303 0
-29 -62 28 304 305 0
-29 -62 28 304 -305 0
-29 -62 28 -304 305 0
-29 -62 28 -304 -305 0
29 -62 -28 306 307 0
29 -62 -28 306 -307 0
29 -62 -28 -306 307 0
29 -62 -28 -306 -307 0
-29 62 -28 308 309 0
-29 62 -28 308 -309 0
-29 62 -28 -308 309 0
-29 62 -28 -308 -309 0
30 61 29 310 311 0
30 61 29 310 -311 0
30 61 29 -310 311 0
30 61 29 -310 -311 0
-30 -61 29 312 313 0
-30 -61 29 312 -313 0
-30 -61 29 -312 313 0
-30 -61 29 -312 -313 0
30 -61 -29 314 315 0
30 -61 -29 314 -315 0
30 -61 -29 -314 315 0
30 -61 -29 -314 -315 0
-30 61 -29 316 317 0
-30 61 -29 316 -317 0
-30 61 -29 -316 317 0
-30 61 -29 -316 -317 0
31 60 30 318 319 0
31 60 30 318 -319 0
31 60 30 -318 319 0
31 60 30 -318 -319 0
-31 -60 30 320 321 0
-31 -60 30 320 -321 0
-31 -60 30 -320 321 0
-31 -60 30 -320 -321 0
31 -60 -30 322 323 0
31 -60 -30 322 -323 0
31 -60 -30 -322 323 0
31 -60 -30 -322 -323 0
-31 60 -30 324 325 0
-31 60 -30 324 -325 0
-31 60 -30 -324 325 0
-31 60 -30 -324 -325 0
32 59 31 326 327 0
32 59 31 326 -327 0
32 59 31 -326 327 0
32 59 31 -326 -327 0
-32 -59 31 328 329 0
-32 -59 31 328 -329 0
-32 -59 31 -328 329 0
-32 -59 31 -328 -329 0
32 -59 -31 330 331 0
32 -59 -31 330 -331 0
32 -59 -31 -330 331 0
32 -59 -31 -330 -331 0
-32 59 -31 332 333 0
-32 59 -31 332 -333 0
-32 59 -31 -332 333 0
-32 59 -31 -332 -333 0
33 58 32 334 335 0
33 58 32 334 -335 0
33 58 32 -334 335 0
33 58 32 -334 -335 0
-33 -58 32 336 337 0
-33 -58 32 336 -337 0
-33 -58 32 -336 337 0
-33 -58 32 -336 -337 0
33 -58 -32 338 339 0
33 -58 -32 338 -339 0
33 -58 -32 -338 339 0
33 -58 -32 -338 -339 0
-33 58 -32 340 341 0
-33 58 -32 340 -341 0
-33 58 -32 -340 341 0
-33 58 -32 -340 -341 0
34 57 33 342 343 0
34 57 33 342 -343 0
34 57 33 -342 343 0
34 57 33 -342 -343 0
-34 -57 33 344 345 0
-34 -57 33 344 -345 0
-34 -57 33 -344 345 0
-34 -57 33 -344 -345 0
34 -57 -33 346 347 0
34 -57 -33 346 -347 0
34 -57 -33 -346 347 0
34 -57 -33 -346 -347 0
-34 57 -33 348 349 0
-34 57 -33 348 -349 0
-34 57 -33 -348 349 0
-34 57 -33 -348 -349 0
35 56 34 350 351 0
35 56 34 350 -351 0
35 56 34 -350 351 0
35 56 34 -350 -351 0
-35 -56 34 352 353 0
-35 -56 34 352 -353 0
-35 -56 34 -352 353 0
-35 -56 34 -352 -353 0
35 -56 -34 354 355 0
35 -56 -34 354 -355 0
35 -56 -34 -354 355 0
35 -56 -34 -354 -355 0
-35 56 -34 356 357 0
-35 56 -34 356 -357 0
-35 56 -34 -356 357 0
-35 56 -34 -356 -357 0
36 55 35 358 359 0
36 55 35 358 -359 0
36 55 35 -358 359 0
36 55 35 -358 -359 0
-36 -55 35 360 361 0
-36 -55 35 360 -361 0
-36 -55 35 -360 361 0
-36 -55 35 -360 -361 0
36 -55 -35 362 363 0
36 -55 -35 362 -363 0
36 -55 -35 -362 363 0
36 -55 -35 -362 -363 0
-36 55 -35 364 365 0
-36 55 -35 364 -365 0
-36 55 -35 -364 365 0
-36 55 -35 -364 -365 0
37 54 36 366 367 0
37 54 36 366 -367 0
37 54 36 -366 367 0
37 54 36 -366 -367 0
-37 -54 36 368 369 0
-37 -54 36 368 -369 0
-37 -54 36 -368 369 0
-37 -54 36 -368 -369 0
37 -54 -36 370 371 0
37 -54 -36 370 -371 0
37 -54 -36 -370 371 0
37 -54 -36 -370 -371 0
-37 54 -36 372 373 0
-37 54 -36 372 -373 0
-37 54 -36 -372 373 0
-37 54 -36 -372 -373 0
38 53 37 374 375 0
38 53 37 374 -375 0
38 53 37 -374 375 0
38 53 37 -374 -375 0
-38 -53 37 376 377 0
-38 -53 37 376 -377 0
-38 -53 37 -376 377 0
-38 -53 37 -376 -377 0
38 -53 -37 378 379 0
38 -53 -37 378 -379 0
38 -53 -37 -378 379 0
38 -53 -37 -378 -379 0
-38 53 -37 380 381 0
-38 53 -37 380 -381 0
-38 53 -37 -380 381 0
-38 53 -37 -380 -381 0
39 52 38 382 383 0
39 52 38 382 -383 0
39 52 38 -382 383 0
39 52 38 -382 -383 0
-39 -52 38 384 385 0
-39 -52 38 384 -385 0
-39 -52 38 -384 385 0
-39 -52 38 -384 -385 0
39 -52 -38 386 387 0
39 -52 -38 386 -387 0
39 -52 -38 -386 387 0
39 -52 -38 -386 -387 0
-39 52 -38 388 389 0
-39 52 -38 388 -389 0
-39 52 -38 -388 389 0
-39 52 -38 -388 -389 0
40 51 39 390 391 0
40 51 39 390 -391 0
40 51 39 -390 391 0
40 51 39 -390 -391 0
-40 -51 39 392 393 0
-40 -51 39 392 -393 0
-40 -51 39 -392 393 0
-40 -51 39 -392 -393 0
40 -51 -39 394 395 0
40 -51 -39 394 -395 0
40 -51 -39 -394 395 0
40 -51 -39 -394 -395 0
-40 51 -39 396 397 0
-40 51 -39 396 -397 0
-40 51 -39 -396 397 0
-40 51 -39 -396 -397 0
41 50 40 398 399 0
41 50 40 398 -399 0
41 50 40 -398 399 0
41 50 40 -398 -399 0
-41 -50 40 400 401 0
-41 -50 40 400 -401 0
-41 -50 40 -400 401 0
-41 -50 40 -400 -401 0
41 -50 -40 402 403 0
41 -50 -40 402 -403 0
41 -50 -40 -402 403 0
41 -50 -40 -402 -403 0
-41 50 -40 404 405 0
-41 50 -40 404 -405 0
-41 50 -40 -404 405 0
-41 50 -40 -404 -405 0
42 49 41 406 407 0
42 49 41 406 -407 0
42 49 41 -406 407 0
42 49 41 -406 -407 0
-42 -49 41 408 409 0
-42 -49 41 408 -409 0
-42 -49 41 -408 409 0
-42 -49 41 -408 -409 0
42 -49 -41 410 411 0
42 -49 -41 410 -411 0
42 -49 -41 -410 411 0
42 -49 -41 -410 -411 0
-42 49 -41 412 413 0
-42 49 -41 412 -413 0
-42 49 -41 -412 413 0
-42 49 -41 -412 -413 0
43 48 42 414 415 0
43 48 42 414 -415 0
43 48 42 -414 415 0
43 48 42 -414 -415 0
-43 -48 42 416 417 0
-43 -48 42 416 -417 0
-43 -48 42 -416 417 0
-43 -48 42 -416 -417 0
43 -48 -42 418 419 0
43 -48 -42 418 -419 0
43 -48 -42 -418 419 0
43 -48 -42 -418 -419 0
-43 48 -42 420 421 0
-43 48 -42 420 -421 0
-43 48 -42 -420 421 0
-43 48 -42 -420 -421 0
44 47 43 422 423 0
44 47 43 422 -423 0
44 47 43 -422 423 0
44 47 43 -422 -423 0
-44 -47 43 424 425 0
-44 -47 43 424 -425 0
-44 -47 43 -424 425 0
-44 -47 43 -424 -425 0
44 -47 -43 426 427 0
44 -47 -43 426 -427 0
44 -47 -43 -426 427 0
44 -47 -43 -426 -427 0
-44 47 -43 428 429 0
-44 47 -43 428 -429 0
-44 47 -43 -428 429 0
-44 47 -43 -428 -429 0
45 46 -44 430 431 0
45 46 -44 430 -431 0
45 46 -44 -430 431 0
45 46 -44 -430 -431 0
-45 -46 -44 432 433 0
-45 -46 -44 432 -433 0
-45 -46 -44 -432 433 0
-45 -46 -44 -432 -433 0
45 -46 44 434 435 0
45 -46 44 434 -435 0
45 -46 44 -434 435 0
45 -46 44 -434 -435 0
-45 46 44 436 437 0
-45 46 44 436 -437 0
-45 46 44 -436 437 0
-45 46 44 -436 -437 0
